c --- [ banner ] -------------------------------------------------------------
c 
c CaDiCaL Radically Simplified CDCL SAT Solver
c Copyright (c) 2016-2021 A. Biere, M. Fleury, N. Froleyks
c 
c Version 1.5.2 a5f15211db36c3956764e18194dd5bd63bf3b5e6
c g++ (GCC) 9.3.0 -Wall -Wextra -O3 -DNDEBUG
c Fri Oct 21 01:27:37 EDT 2022 Linux gra-login3 3.10.0-1160.66.1.el7.x86_64 x86_64
c 
c --- [ limit ] --------------------------------------------------------------
c 
c setting conflict limit to 200000 conflicts (due to '200000')
c 
c --- [ parsing input ] ------------------------------------------------------
c 
c reading DIMACS file from '33.cubes4476.adj'
c opening file to read '33.cubes4476.adj'
c found 'p cnf 6160 1595473' header
c parsed 1595473 clauses in 19.05 seconds process time
c closing file '33.cubes4476.adj'
c after reading 1457566760 bytes 1390.0 MB
c 
c --- [ options ] ------------------------------------------------------------
c 
c all options are set to their default value
c 
c --- [ solving ] ------------------------------------------------------------
c 
c time measured in process time since initialization
c 
c  seconds    reductions  redundant   irredundant
c          MB     restarts       trail       variables
c            level   conflicts       glue         remaining
c 
c * 19.05 1377  0 0   0    0    0  0% 0 1595422 2265 37%
c { 19.62 1412  0 0   0    0    0  0% 0 1595422 2265 37%
c i 20.13 1438 1178 0   0    6    5 37% 1 1595422 2259 37%
c i 20.70 1451 1119 0   1   18   14 38% 3 1595422 2250 37%
c i 21.76 1476 769 0   5   33   28 37% 9 1595422 2249 37%
c i 22.43 1483 539 0   9   50   40 34% 13 1595422 2237 36%
c i 22.72 1483 431 0  10   64   52 32% 13 1595422 2236 36%
c i 22.72 1483 425 0  10   65   52 32% 12 1595422 2235 36%
c i 22.95 1485 394 0  12   71   57 31% 14 1595422 2234 36%
c i 23.44 1487 344 0  16   83   68 31% 14 1595422 2233 36%
c i 23.55 1487 330 0  17   89   70 30% 13 1595422 2229 36%
c i 24.14 1490 261 0  24  121   97 30% 19 1595422 2228 36%
c i 24.68 1492 217 0  32  154  120 30% 20 1595422 2227 36%
c i 24.71 1492 214 0  33  156  121 29% 20 1595422 2226 36%
c i 24.73 1492 210 0  34  161  124 29% 20 1595422 2225 36%
c i 24.82 1493 202 0  37  170  132 29% 20 1595422 2224 36%
c i 25.15 1493 187 0  42  194  152 29% 21 1595422 2223 36%
c i 25.52 1493 171 0  46  231  179 29% 22 1595422 2222 36%
c i 25.77 1494 169 0  49  242  189 29% 22 1595422 2221 36%
c i 25.77 1494 168 0  49  243  189 29% 22 1595422 2220 36%
c 
c  seconds     reductions  redundant    irredundant
c          MB      restarts       trail        variables
c             level   conflicts       glue          remaining
c 
c i 25.77 1494 167 0  50  245  189 29% 22 1595422 2219 36%
c i 25.77 1494 166 0  50  246  189 29% 22 1595422 2218 36%
c i 25.78 1494 165 0  51  247  189 28% 22 1595422 2217 36%
c i 26.03 1494 155 0  58  279  216 29% 24 1595422 2216 36%
c i 26.15 1494 155 0  60  289  225 29% 25 1595422 2215 36%
c - 29.81 1369 150 1  64  300  232 28% 25 137681 2215 36%
c i 30.05 1369 141 1  66  321  242 28% 24 137681 2214 36%
c i 30.10 1369 141 1  67  326  246 28% 25 137681 2213 36%
c i 30.12 1369 141 1  68  330  249 28% 26 137681 2212 36%
c i 30.12 1369 140 1  69  333  251 28% 26 137681 2211 36%
c i 30.12 1369 139 1  71  338  254 28% 26 137681 2210 36%
c i 30.24 1369 124 1  81  400  284 27% 26 137681 2209 36%
c i 30.34 1369 126 1  83  431  314 27% 26 137681 2208 36%
c i 30.35 1369 124 1  84  438  320 27% 26 137681 2207 36%
c i 30.38 1369 119 1  85  462  335 28% 26 137681 2206 36%
c i 30.43 1369 113 1  85  493  351 28% 26 137681 2205 36%
c i 30.44 1369 111 1  85  502  356 28% 25 137681 2204 36%
c i 30.49 1369 106 1  85  537  380 28% 25 137681 2203 36%
c i 30.57 1369 102 1  92  586  413 28% 26 137681 2202 36%
c i 30.60 1369 102 1  92  589  415 28% 26 137681 2201 36%
c 
c  seconds    reductions  redundant   irredundant
c          MB     restarts       trail       variables
c            level   conflicts       glue         remaining
c 
c i 30.97 1369 99 1 107  652  475 28% 27 137681 2200 36%
c i 31.08 1369 96 1 115  688  505 28% 27 137681 2199 36%
c i 31.08 1369 96 1 115  694  510 28% 27 137681 2198 36%
c i 31.08 1369 96 1 115  695  510 28% 27 137681 2197 36%
c i 31.09 1369 95 1 115  700  514 28% 27 137681 2196 36%
c i 31.09 1369 95 1 115  702  515 28% 26 137681 2195 36%
c i 31.10 1369 92 1 115  731  528 28% 26 137681 2194 36%
c i 31.11 1369 91 1 115  740  535 28% 26 137681 2193 36%
c i 31.13 1369 85 1 115  810  587 28% 25 137681 2192 36%
c i 31.14 1369 82 1 115  852  612 29% 25 137681 2191 36%
c i 31.15 1369 79 1 115  882  622 29% 24 137681 2190 36%
c i 31.17 1369 74 1 115  959  665 29% 23 137681 2189 36%
c - 31.48 1420 73 2 115  986  582 29% 23 137605 2189 36%
c } 31.52 1420 72 2 115 1003  597 29% 23 137605 2189 36%
c [ 31.52 1420  0 2 115 1003  597  0% 0 137605 2189 36%
c O 31.52 1420  1 2 115 1004  598 15% 1 137605 2189 36%
c i 31.57 1420 14 2 115 1023  614 30% 13 137605 2188 36%
c i 31.58 1420 15 2 115 1036  623 31% 13 137605 2187 36%
c i 31.59 1420 15 2 115 1059  640 32% 13 137605 2186 35%
c i 31.59 1420 16 2 115 1072  646 33% 14 137605 2185 35%
c 
c  seconds    reductions  redundant   irredundant
c          MB     restarts       trail       variables
c            level   conflicts       glue         remaining
c 
c i 31.59 1420 16 2 115 1085  652 33% 14 137605 2184 35%
c i 31.59 1420 16 2 115 1086  652 33% 14 137605 2183 35%
c i 31.60 1420 16 2 115 1104  656 33% 14 137605 2182 35%
c i 31.61 1420 15 2 115 1146  668 33% 13 137605 2181 35%
c i 31.61 1420 15 2 115 1159  679 33% 13 137605 2180 35%
c i 31.61 1420 15 2 115 1163  682 33% 13 137605 2179 35%
c i 31.63 1420 16 2 115 1270  738 32% 14 137605 2178 35%
c i 31.63 1420 16 2 115 1271  738 32% 14 137605 2177 35%
c i 31.78 1420 25 2 115 1770 1032 32% 22 137605 2176 35%
c - 31.99 1418 25 3 115 2013  852 32% 22 137566 2176 35%
c ] 32.37 1418 23 3 116 3004 1334 51% 20 137566 2176 35%
c { 32.37 1418 72 3 116 3004 1334 82% 23 137566 2176 35%
c F 32.40 1418 72 3 116 3005 1335 82% 23 137566 2176 35%
c i 32.45 1418 70 3 116 3029 1350 81% 23 137566 2175 35%
c i 32.56 1418 70 3 120 3078 1392 79% 23 137566 2174 35%
c i 32.61 1418 70 3 123 3094 1405 79% 23 137566 2173 35%
c i 32.67 1418 71 3 127 3109 1418 78% 24 137566 2172 35%
c i 32.67 1418 71 3 128 3111 1419 78% 24 137566 2171 35%
c i 32.88 1418 74 3 151 3207 1500 75% 26 137566 2168 35%
c i 32.91 1418 75 3 154 3214 1505 75% 27 137566 2167 35%
c 
c  seconds    reductions  redundant   irredundant
c          MB     restarts       trail       variables
c            level   conflicts       glue         remaining
c 
c i 32.99 1418 72 3 163 3291 1524 73% 26 137566 2166 35%
c i 32.99 1418 71 3 163 3294 1526 73% 26 137566 2165 35%
c - 33.34 1368 72 4 179 3379 1137 71% 27 137534 2165 35%
c i 33.37 1368 72 4 182 3391 1147 70% 27 137534 2164 35%
c i 33.52 1368 71 4 190 3432 1184 69% 27 137534 2163 35%
c i 33.52 1368 71 4 190 3434 1185 69% 27 137534 2162 35%
c i 33.53 1368 71 4 190 3435 1185 69% 27 137534 2161 35%
c i 33.96 1369 53 4 192 4322 1833 60% 23 137534 2160 35%
c d 34.34 1369 47 4 200 5000 2316 57% 22 137506 2153 35%
c 2 34.37 1369 47 4 200 5000 3283 57% 22 137497 2149 35%
c p 37.38 1369 47 4 200 5000 6422 57% 22 137497 2120 34%
c d 37.56 1369 47 4 200 5000 6217 57% 22 137396 2117 34%
c - 37.82 1369 46 5 200 5089 1712 57% 22 137396 2117 34%
c # 38.30 1369 40 5 203 6006 2378 54% 21 137396 2117 34%
c } 40.32 1369 42 5 375 7004 3179 52% 22 137396 2117 34%
c [ 40.32 1369 23 5 375 7004 3179 51% 20 137396 2117 34%
c - 40.42 1369 23 6 376 7138 2366 50% 20 137396 2117 34%
c - 41.11 1369 21 7 377 9529 2390 48% 18 137396 2117 34%
c I 41.38 1369 21 7 377 10008 2665 47% 18 137396 2117 34%
c - 42.45 1369 30 8 379 12261 3066 45% 25 137396 2117 34%
c 
c  seconds    reductions   redundant   irredundant
c          MB     restarts        trail       variables
c            level    conflicts       glue         remaining
c 
c 2 44.05 1369 35 8 380 15001 6000 45% 29 137393 2117 34%
c p 45.33 1369 35 8 380 15001 9052 45% 29 137393 2116 34%
c d 45.42 1369 35 8 380 15001 9012 45% 29 137379 2114 34%
c ] 45.48 1369 35 8 380 15006 9016 45% 29 137379 2114 34%
c { 45.48 1369 42 8 380 15006 9016 52% 22 137379 2114 34%
c B 45.50 1369 42 8 380 15009 9019 52% 22 137379 2114 34%
c - 46.19 1369 43 9 433 15333 3768 52% 23 137379 2114 34%
c - 48.55 1369 37 10 556 18747 4115 50% 21 137379 2114 34%
c s 48.68 1370 37 10 556 18921 4074 50% 21 135384 2114 34%
c v 49.88 1369 37 10 556 18921 4074 50% 21 135352 2114 34%
c t 49.95 1369 37 10 556 18921 4067 50% 21 135338 2114 34%
c e 50.31 1371 37 10 556 18921 3858 50% 21 132791 749 12%
c s 50.39 1371 37 10 556 18921 3858 50% 21 132335 749 12%
c W 51.87 1371 34 10 637 21011 5305 77% 20 132335 749 12%
c - 52.23 1371 32 11 637 22504 5255 77% 20 132335 749 12%
c - 55.05 1371 32 12 978 26542 5599 76% 20 132335 749 12%
c F 55.60 1371 31 12 993 28012 6392 77% 20 132335 749 12%
c p 57.95 1371 30 12 1200 30002 9779 77% 20 132335 749 12%
c - 58.59 1371 30 13 1292 30916 5690 77% 20 132335 749 12%
c } 58.62 1371 30 13 1292 31008 5736 77% 20 132335 749 12%
c 
c  seconds    reductions     redundant    irredundant
c          MB      restarts         trail        variables
c            level      conflicts        glue        remaining
c 
c [ 58.62 1371 35 13 1292 31008 5736 130% 29 132335 749 12%
c - 59.89 1371 30 14 1295 35627 5422 112% 25 132335 749 12%
c B 60.07 1371 30 14 1295 36013 5669 111% 25 132335 749 12%
c ] 60.15 1371 31 14 1295 36292 5881 110% 26 132335 749 12%
c 1 60.15 1371 31 14 1295 36292 5881 110% 26 132335 749 12%
c 
c --- [ writing output ] -----------------------------------------------------
c 
c writing simplified CNF to DIMACS file 'simp/33.cubes4476.adj.simp1'
c * 60.15 1371 31 14 1295 36292 5881 110% 26 132335 749 12%
c opening file to write 'simp/33.cubes4476.adj.simp1'
c writing 'p cnf 6160 132335' header
c closing file 'simp/33.cubes4476.adj.simp1'
c after writing 52126443 bytes 49.7 MB
c wrote 132335 clauses in 0.37 seconds process time
c 
c --- [ writing extension ] --------------------------------------------------
c 
c writing extension stack to 'simp/33.cubes4476.adj.ext1'
c opening file to write 'simp/33.cubes4476.adj.ext1'
c closing file 'simp/33.cubes4476.adj.ext1'
c after writing 86711 bytes 0.1 MB
c wrote 3920 witnesses in 0.00 seconds process time
c 
c --- [ result ] -------------------------------------------------------------
c 
s SATISFIABLE
c 
c --- [ run-time profiling ] -------------------------------------------------
c 
c process time taken by individual solving procedures
c (percentage relative to process time for solving)
c 
c        33.62   81.80% search
c        26.83   65.28% unstable
c        19.05   46.35% parse
c         7.48   18.20% simplify
c         6.13   14.90% stable
c         4.81   11.70% probe
c         1.25    3.05% vivify
c         0.70    1.69% elim
c         0.57    1.38% lucky
c         0.15    0.36% subsume
c         0.10    0.25% walk
c         0.06    0.14% ternary
c   =================================
c        41.10   67.91% solve
c 
c last line shows process time for solving
c (percentage relative to total process time)
c 
c --- [ statistics ] ---------------------------------------------------------
c 
c chronological:              6983        19.24 %  of conflicts
c conflicts:                 36292       883.00    per second
c decisions:                111112      2703.40    per second
c eliminated:                 1365        22.16 %  of all variables
c fixed:                       890        14.45 %  of all variables
c learned:                   35535        97.91 %  per conflict
c learned_lits:            5956373       100.00 %  learned literals
c minimized:                     0         0.00 %  learned literals
c shrunken:                4036930        67.77 %  learned literals
c minishrunken:             321327         5.39 %  learned literals
c propagations:            3840873         0.09 M  per second
c reduced:                   18132        49.96 %  per conflict
c rephased:                      8      4536.50    interval
c restarts:                   1295        28.02    interval
c stabilizing:                   3        42.12 %  of conflicts
c substituted:                  12         0.19 %  of all variables
c subsumed:                  13806         0.41 %  of all clauses
c strengthened:               7974         0.24 %  of all clauses
c ternary:                    2405         0.65 %  of resolved
c vivified:                     54         0.00 %  of all clauses
c walked:                        1     36292.00    interval
c weakened:                   3030         2.96    average size
c 
c seconds are measured in process time for solving
c 
c --- [ resources ] ----------------------------------------------------------
c 
c total process time since initialization:        60.52    seconds
c total real time since initialization:           60.86    seconds
c maximum resident set size of process:         1493.71    MB
c 
c --- [ shutting down ] ------------------------------------------------------
c 
c exit 10
WARNING! DIMACS header mismatch: wrong number of variables.
============================[ Problem Statistics ]=============================
|                                                                             |
|  Number of variables:          5379                                         |
|  Number of clauses:          132337                                         |
|  Parse time:                   0.68 s                                       |
|  Simplification time:          0.01 s                                       |
|                                                                             |
============================[ Search Statistics ]====================================================
| Conflicts |          ORIGINAL         |          LEARNT          | Num Sols |      SUBGRAPHS      |
|           |    Vars  Clauses Literals |    Limit  Clauses Lit/Cl |          | Canonical Noncanon. |
=====================================================================================================
|       105 |    5281   132342 11354319 |     2000      105    189 |        0 |        15         5 |
|       499 |    5281   132586 11358566 |     2000      499     62 |        0 |       164       249 |
|      1441 |    5281   133303 11369329 |     2000     1441     31 |        0 |       412       966 |
|      2943 |    5281   134468 11387967 |     3601     1944     19 |        0 |       794      2131 |
|      3450 |    5281   134469 11387990 |     3601     2451     36 |        0 |       800      2132 |
|      4306 |    5281   134566 11390478 |     3601     3307     52 |        0 |       827      2229 |
|      6435 |    5281   135556 11405437 |     5002     3637     31 |        0 |      1137      3219 |
|      8317 |    5281   135730 11409595 |     6306     3023     27 |        0 |      1187      3393 |
|     13605 |    5281   138456 11452345 |     7562     5167     47 |        0 |      1895      6119 |
|     17472 |    5281   138479 11453187 |     8793     5265     47 |        0 |      1908      6142 |
|     35365 |    5281   150606 11643057 |    12407     8172     19 |        0 |      5093     18269 |
|     66300 |    5281   172892 11954647 |    17218    10718     27 |        0 |      9679     40555 |
|    113531 |    5280   207149 12469193 |    22013    19944     29 |        0 |     16512     74812 |
|    156675 |    5280   230832 12778446 |    26815    15490     28 |        0 |     21227     98495 |
=====================================================================================================
Number of solutions   : 0
Canonical subgraphs   : 22194          (49 /sec)
          order  3    : 1              (200000 /sec)
          order  4    : 1              (500000 /sec)
          order  5    : 1              (250000 /sec)
          order  6    : 1              (52632 /sec)
          order  7    : 2              (10204 /sec)
          order  8    : 4              (2076 /sec)
          order  9    : 9              (433 /sec)
          order 10    : 39             (134 /sec)
          order 11    : 282            (83 /sec)
          order 12    : 1980           (51 /sec)
          order 13    : 18871          (50 /sec)
          order 14    : 509            (44 /sec)
          order 15    : 341            (26 /sec)
          order 16    : 149            (14 /sec)
          order 17    : 4              (13 /sec)
          order 18    : 0              (-nan /sec)
          order 19    : 0              (-nan /sec)
          order 20    : 0              (-nan /sec)
          order 21    : 0              (-nan /sec)
          order 22    : 0              (-nan /sec)
Noncanonical subgraphs: 103434         (384 /sec)
          order  3    : 0              (-nan /sec)
          order  4    : 0              (-nan /sec)
          order  5    : 0              (-nan /sec)
          order  6    : 0              (-nan /sec)
          order  7    : 0              (-nan /sec)
          order  8    : 0              (-nan /sec)
          order  9    : 0              (-nan /sec)
          order 10    : 0              (-nan /sec)
          order 11    : 0              (-nan /sec)
          order 12    : 0              (-nan /sec)
          order 13    : 30118          (2589 /sec)
          order 14    : 69814          (284 /sec)
          order 15    : 2096           (393 /sec)
          order 16    : 1222           (237 /sec)
          order 17    : 172            (155 /sec)
          order 18    : 12             (45 /sec)
          order 19    : 0              (-nan /sec)
          order 20    : 0              (-nan /sec)
          order 21    : 0              (-nan /sec)
Canonicity checking   : 456.494 s
Noncanonicity checking: 269.447 s
Total canonicity time : 725.941 s
database reductions   : 20
restarts              : 445
conflicts             : 165693         (217 /sec)
decisions             : 318752         (0.00 % random) (417 /sec)
propagations          : 7196593        (9409 /sec)
conflict literals     : 6590896        (51.86 % deleted)
actual reward         : 0.154547
Memory used           : 147.00 MB
CPU time              : 764.868 s

UNSATISFIABLE
